
Log for 'C:\Users\SEOHARAM\AppData\Local\Temp\0093e207ce8846ba9bae8a161873e469-pulp.lp' Clone_2 (V22.1.1.0) Thu Oct 26 11:28:33 2023

Tried aggregator 1 time.
LP Presolve eliminated 5 rows and 870480 columns.
All rows and columns eliminated.
Presolve time = 0.26 sec. (324.48 ticks)

Dual simplex solved model.


Log for 'C:\Users\SEOHARAM\AppData\Local\Temp\c4cc4c3860e9498788fbceafb1807d9e-pulp.lp' Clone_2 (V22.1.1.0) Thu Oct 26 11:39:28 2023

Tried aggregator 1 time.
LP Presolve eliminated 5 rows and 870480 columns.
All rows and columns eliminated.
Presolve time = 0.27 sec. (324.48 ticks)

Dual simplex solved model.

